0000000000000000
0111111110000000
0111111111100000
0110001111100000
0000000011110000
0000000001110000
0000000001110000
0000000000110000
0000000000110000
0000000000110000
0000000000110000
0000000000110000
0000000000110000
0111111111111110
0111111111111110
0111111111111110
